decision_x1=[0,4];
decision_x2=[0,4];
decision_x3=[0,4];
decision_x4=[0,4];
decision_x5=[0,4];
random_y1=[0,4];
constraint_x3_x2=[
0,1,8.3|
0,2,4.3|
0,3,7.1|
0,4,2|
1,0,4.1|
1,2,9.9|
1,3,5.1|
1,4,7.1|
2,0,1.9|
2,1,1.1|
2,3,6.4|
2,4,8.7|
3,0,1.9|
3,1,5.1|
3,2,8.5|
3,4,3.9|
4,0,9.1|
4,1,8.2|
4,2,8.2|
4,3,2.9|
];
constraint_x4_x1=[
0,1,3.7|
0,2,6|
0,3,4.3|
0,4,7.5|
1,0,4.2|
1,2,3.9|
1,3,7.6|
1,4,0.24|
2,0,8.4|
2,1,7.7|
2,3,6.1|
2,4,2.7|
3,0,0.082|
3,1,9.8|
3,2,9.8|
3,4,3.3|
4,0,5.4|
4,1,2.7|
4,2,3|
4,3,4.7|
];
constraint_x4_x3=[
0,1,1.6|
0,2,0.36|
0,3,9.3|
0,4,4.8|
1,0,9.1|
1,2,5.2|
1,3,5.2|
1,4,1.7|
2,0,5.8|
2,1,2.1|
2,3,7.8|
2,4,7.5|
3,0,5.6|
3,1,1|
3,2,6.4|
3,4,9.4|
4,0,3.9|
4,1,1.4|
4,2,8.2|
4,3,2.8|
];
constraint_x5_x1=[
0,1,1.2|
0,2,9.4|
0,3,6.2|
0,4,8.3|
1,0,0.11|
1,2,6.1|
1,3,8.7|
1,4,0.37|
2,0,7.4|
2,1,9.1|
2,3,6.5|
2,4,7.9|
3,0,0.42|
3,1,8.2|
3,2,6.5|
3,4,8.6|
4,0,4.8|
4,1,9.6|
4,2,5.4|
4,3,1.9|
];
constraint_x5_x4=[
0,1,1.6|
0,2,6.6|
0,3,3.1|
0,4,8.9|
1,0,6.1|
1,2,9.9|
1,3,3.4|
1,4,5.9|
2,0,8.7|
2,1,8.3|
2,3,9.8|
2,4,5|
3,0,5.7|
3,1,3.5|
3,2,0.13|
3,4,5.5|
4,0,6.2|
4,1,8.6|
4,2,9.3|
4,3,3|
];
constraint_x1_y1=[
0,0,0.42|
0,1,5.3|
0,2,5.1|
0,3,9.2|
0,4,3.4|
1,0,4.6|
1,1,2.8|
1,2,4.7|
1,3,6.7|
1,4,2.8|
2,0,8|
2,1,1.2|
2,2,7.2|
2,3,5.7|
2,4,1.9|
3,0,8.5|
3,1,2.4|
3,2,0.19|
3,3,4.5|
3,4,3.4|
4,0,3.6|
4,1,2.4|
4,2,6.6|
4,3,2.4|
4,4,9.2|
];
initial_distribution_y1=[0.34,0.16,0.052,0.14,0.32];
transition_y1=[
0.046,0.42,0.35,0.11,0.076|
0.31,0.055,0.11,0.32,0.21|
0.11,0.4,0.098,0.066,0.33|
0.25,0.18,0.25,0.23,0.092|
0.13,0.28,0.16,0.17,0.25|
];
